NAME (null)
OBJSENSE MAX
ROWS
 N  OBJ
 L  R0
 L  R1
 L  R2
COLUMNS
    C0        OBJ       200
    C0        R0        1
    C0        R1        15
    C1        OBJ       207
    C1        R0        1
    C1        R1        30
RHS
    RHS1      R0        150
    RHS1      R1        3000
BOUNDS
 UP BND1      C1        60
ENDATA
